
Gurobi 7.5.2 (linux64) logging started Sat Jul  7 16:16:09 2018

Changed value of parameter LogFile to result/ilp/simNo_10-n_100-m_40-s_7-minVAF_0.05-cov_10000-k_1-fn_0.25-fp_0.0001-na_0.15.ILP.gurobiSolverLog
   Prev: gurobi.log  Default: 
Changed value of parameter TimeLimit to 86400.0
   Prev: 1e+100  Min: 0.0  Max: 1e+100  Default: 1e+100
Optimize a model with 639293 rows, 10765 columns and 1940420 nonzeros
Variable types: 0 continuous, 10765 integer (10765 binary)
Coefficient statistics:
  Matrix range     [3e-05, 4e+00]
  Objective range  [1e+00, 2e+01]
  Bounds range     [1e+00, 1e+00]
  RHS range        [5e-02, 2e+00]
Found heuristic solution: objective -6062.990475
Presolve removed 144482 rows and 1151 columns (presolve time = 5s) ...
Presolve removed 145188 rows and 1151 columns (presolve time = 10s) ...
Presolve removed 215788 rows and 1857 columns
Presolve time: 14.76s
Presolved: 423505 rows, 8908 columns, 1271799 nonzeros
Variable types: 0 continuous, 8908 integer (8908 binary)
Presolved: 8908 rows, 432413 columns, 1280707 nonzeros

Presolve removed 8908 rows and 432413 columns

Root simplex log...

Iteration    Objective       Primal Inf.    Dual Inf.      Time
       0    2.2143562e+01   0.000000e+00   3.000200e+04     18s
   11242   -1.5107241e+02   0.000000e+00   0.000000e+00     20s
   11242   -1.5107241e+02   0.000000e+00   0.000000e+00     20s

Root relaxation: objective -1.510724e+02, 11242 iterations, 4.25 seconds
Total elapsed time = 26.21s

    Nodes    |    Current Node    |     Objective Bounds      |     Work
 Expl Unexpl |  Obj  Depth IntInf | Incumbent    BestBd   Gap | It/Node Time

     0     0 -151.07241    0  696 -6062.9905 -151.07241  97.5%     -   30s
H    0     0                    -219.9568824 -151.07241  31.3%     -   32s
H    0     0                    -189.2398913 -151.07241  20.2%     -   32s
H    0     0                    -167.8335053 -151.07241  10.0%     -   35s
     0     0 -153.52306    0  695 -167.83351 -153.52306  8.53%     -   39s
H    0     0                    -166.6081762 -153.52306  7.85%     -   43s
     0     0 -153.72729    0  697 -166.60818 -153.72729  7.73%     -   44s
     0     0 -155.15684    0  695 -166.60818 -155.15684  6.87%     -   50s
     0     0 -155.51422    0  697 -166.60818 -155.51422  6.66%     -   54s
     0     0 -155.53975    0  721 -166.60818 -155.53975  6.64%     -   56s
     0     0 -156.42046    0  714 -166.60818 -156.42046  6.11%     -   65s
     0     0 -156.94378    0  710 -166.60818 -156.94378  5.80%     -   69s
     0     0 -156.94378    0  712 -166.60818 -156.94378  5.80%     -   73s
     0     0 -158.11805    0  710 -166.60818 -158.11805  5.10%     -   78s
     0     0 -158.22016    0  716 -166.60818 -158.22016  5.03%     -   83s
     0     0 -158.30525    0  719 -166.60818 -158.30525  4.98%     -   85s
     0     0 -158.37333    0  704 -166.60818 -158.37333  4.94%     -   90s
     0     0 -158.37333    0  707 -166.60818 -158.37333  4.94%     -   94s
     0     0 -158.91482    0  710 -166.60818 -158.91482  4.62%     -   98s
     0     0 -158.93515    0  716 -166.60818 -158.93515  4.61%     -  102s
     0     0 -158.95266    0  718 -166.60818 -158.95266  4.59%     -  104s
     0     0 -158.95995    0  719 -166.60818 -158.95995  4.59%     -  107s
     0     0 -158.97097    0  718 -166.60818 -158.97097  4.58%     -  109s
     0     0 -159.35287    0  707 -166.60818 -159.35287  4.35%     -  115s
     0     0 -159.88554    0  708 -166.60818 -159.88554  4.03%     -  118s
     0     0 -159.89365    0  706 -166.60818 -159.89365  4.03%     -  120s
     0     0 -159.92217    0  705 -166.60818 -159.92217  4.01%     -  121s
     0     0 -160.83858    0  613 -166.60818 -160.83858  3.46%     -  137s
     0     0 -160.83858    0  292 -166.60818 -160.83858  3.46%     -  170s
     0     0 -160.83858    0  360 -166.60818 -160.83858  3.46%     -  174s
     0     0 -161.44815    0  360 -166.60818 -161.44815  3.10%     -  175s
     0     0 -161.47017    0  363 -166.60818 -161.47017  3.08%     -  176s
     0     0 -161.47017    0  361 -166.60818 -161.47017  3.08%     -  176s
     0     0 -162.34780    0  268 -166.60818 -162.34780  2.56%     -  179s
     0     0 -162.34780    0  288 -166.60818 -162.34780  2.56%     -  183s
     0     0 -162.34780    0  230 -166.60818 -162.34780  2.56%     -  184s
     0     0 -162.34780    0  288 -166.60818 -162.34780  2.56%     -  185s
     0     0 -162.34780    0  303 -166.60818 -162.34780  2.56%     -  185s
     0     0 -162.34780    0  302 -166.60818 -162.34780  2.56%     -  185s
     0     0 -162.34780    0  269 -166.60818 -162.34780  2.56%     -  186s
     0     0 -162.34780    0  241 -166.60818 -162.34780  2.56%     -  186s
     0     0 -162.34780    0  236 -166.60818 -162.34780  2.56%     -  186s
     0     0 -162.34780    0  236 -166.60818 -162.34780  2.56%     -  186s
     0     0 -162.34780    0  272 -166.60818 -162.34780  2.56%     -  186s
     0     0 -162.34780    0  271 -166.60818 -162.34780  2.56%     -  187s
     0     0 -162.69156    0  264 -166.60818 -162.69156  2.35%     -  187s
     0     0 -162.73142    0  259 -166.60818 -162.73142  2.33%     -  187s
     0     0 -163.01025    0  234 -166.60818 -163.01025  2.16%     -  187s
     0     0 -163.01025    0  231 -166.60818 -163.01025  2.16%     -  187s
     0     0 -163.11219    0  243 -166.60818 -163.11219  2.10%     -  188s
     0     0 -163.12002    0  299 -166.60818 -163.12002  2.09%     -  188s
     0     0 -163.12002    0  306 -166.60818 -163.12002  2.09%     -  188s
     0     0 -163.56370    0  293 -166.60818 -163.56370  1.83%     -  188s
     0     0 -163.56370    0  294 -166.60818 -163.56370  1.83%     -  188s
     0     0 -163.67622    0  296 -166.60818 -163.67622  1.76%     -  189s
     0     0 -163.83302    0  286 -166.60818 -163.83302  1.67%     -  189s
     0     0 -163.83302    0  275 -166.60818 -163.83302  1.67%     -  189s
     0     0 -163.83302    0  280 -166.60818 -163.83302  1.67%     -  189s
     0     0 -163.87820    0  276 -166.60818 -163.87820  1.64%     -  189s
     0     0 -163.96707    0  284 -166.60818 -163.96707  1.59%     -  189s
     0     0 -164.08978    0  339 -166.60818 -164.08978  1.51%     -  190s
     0     0 -164.30739    0  313 -166.60818 -164.30739  1.38%     -  190s
     0     0 -164.33764    0  335 -166.60818 -164.33764  1.36%     -  190s
     0     0 -164.33764    0  335 -166.60818 -164.33764  1.36%     -  190s
     0     0 -164.40114    0  336 -166.60818 -164.40114  1.32%     -  190s
     0     0 -164.47248    0  341 -166.60818 -164.47248  1.28%     -  191s
     0     0 -164.47248    0  342 -166.60818 -164.47248  1.28%     -  191s
     0     0 -164.82836    0  224 -166.60818 -164.82836  1.07%     -  191s
H    0     0                    -165.0412482 -164.82836  0.13%     -  191s
     0     0 -164.82836    0  207 -165.04125 -164.82836  0.13%     -  191s
     0     0 -164.82836    0   19 -165.04125 -164.82836  0.13%     -  192s

Explored 1 nodes (33526 simplex iterations) in 192.28 seconds
Thread count was 1 (of 80 available processors)

Solution count 10: -165.041 -165.041 -166.608 ... -6062.99

Optimal solution found (tolerance 1.00e-04)
Best objective -1.650412481783e+02, best bound -1.650412481783e+02, gap 0.0000%
